c preprocessed version of RingedTree_6, 45 vertices, 104 edges
p td 45 104
0 1
0 11
5 0
15 0
2 1
41 1
14 1
15 1
3 2
41 2
14 2
3 4
41 3
39 3
5 4
41 4
39 4
40 4
5 6
41 5
7 6
28 6
6 36
40 6
8 7
7 28
8 9
8 27
10 9
9 22
9 27
25 9
11 10
10 18
23 10
11 12
17 11
13 12
15 12
16 12
17 12
13 14
13 15
16 13
15 14
17 16
19 16
17 18
19 17
19 18
20 18
23 18
20 19
21 20
23 20
21 22
21 23
24 21
23 22
24 22
25 22
25 24
32 24
25 26
32 25
27 26
32 26
31 26
30 26
27 28
30 27
28 29
35 28
30 29
33 29
34 29
35 29
30 31
33 30
31 32
33 31
34 33
35 34
37 34
35 36
37 35
37 36
38 36
40 36
38 37
38 39
40 38
40 39
42 43
42 11
42 10
42 8
43 0
43 5
43 7
44 42
44 43
44 8
44 7
